
******************************************************************************
This program contains Ipopt, a library for large-scale nonlinear optimization.
 Ipopt is released as open source code under the Eclipse Public License (EPL).
         For more information visit https://github.com/coin-or/Ipopt
******************************************************************************

This is Ipopt version 3.14.17, running with linear solver MUMPS 5.7.3.

Number of nonzeros in equality constraint Jacobian...:        0
Number of nonzeros in inequality constraint Jacobian.:       10
Number of nonzeros in Lagrangian Hessian.............:        0

Total number of variables............................:       10
                     variables with only lower bounds:        0
                variables with lower and upper bounds:       10
                     variables with only upper bounds:        0
Total number of equality constraints.................:        0
Total number of inequality constraints...............:        1
        inequality constraints with only lower bounds:        0
   inequality constraints with lower and upper bounds:        0
        inequality constraints with only upper bounds:        1

iter    objective    inf_pr   inf_du lg(mu)  ||d||  lg(rg) alpha_du alpha_pr  ls
   0  2.0474778e-05 0.00e+00 1.00e+00   0.0 0.00e+00    -  0.00e+00 0.00e+00   0
   1  2.0474778e-05 0.00e+00 1.00e-02  -6.2 1.72e-05    -  9.90e-01 1.00e+00f  1
   2  2.0476769e-05 0.00e+00 2.35e-01  -2.3 1.34e+01    -  1.00e+00 3.53e-02f  2
   3  2.0483530e-05 0.00e+00 4.34e-03  -2.3 1.87e+00    -  1.00e+00 1.00e+00f  1
   4  2.0484468e-05 0.00e+00 3.56e-04  -3.5 3.11e-01    -  1.00e+00 1.00e+00f  1
   5  2.0484656e-05 0.00e+00 3.96e-05  -5.2 6.35e-02    -  1.00e+00 1.00e+00f  1
   6  2.0484657e-05 0.00e+00 1.78e-07  -7.8 4.78e-04    -  1.00e+00 1.00e+00h  1
   7  2.0484658e-05 0.00e+00 1.77e-07  -7.8 5.09e-04    -  1.00e+00 1.00e+00f  1
   8  2.0484660e-05 0.00e+00 1.77e-07  -7.8 5.09e-04    -  1.00e+00 1.00e+00f  1
   9  2.0484661e-05 0.00e+00 1.77e-07  -7.8 5.09e-04    -  1.00e+00 1.00e+00f  1
iter    objective    inf_pr   inf_du lg(mu)  ||d||  lg(rg) alpha_du alpha_pr  ls
  10  2.0484663e-05 0.00e+00 1.77e-07  -7.8 5.09e-04    -  1.00e+00 1.00e+00h  1
  11  2.0484664e-05 0.00e+00 1.77e-07  -7.8 5.08e-04    -  1.00e+00 1.00e+00h  1
  12  2.0484666e-05 0.00e+00 1.77e-07  -7.8 5.08e-04    -  1.00e+00 1.00e+00h  1
  13  2.0484667e-05 0.00e+00 1.77e-07  -7.8 5.08e-04    -  1.00e+00 1.00e+00f  1
  14  2.0484668e-05 0.00e+00 1.77e-07  -7.8 5.08e-04    -  1.00e+00 1.00e+00h  1
  15  2.0484669e-05 0.00e+00 1.77e-07  -7.8 5.08e-04    -  1.00e+00 1.00e+00h  1
  16  2.0484671e-05 0.00e+00 1.77e-07  -7.8 5.08e-04    -  1.00e+00 1.00e+00h  1
  17  2.0484673e-05 0.00e+00 1.77e-07  -7.8 5.08e-04    -  1.00e+00 1.00e+00h  1
  18  2.0484674e-05 0.00e+00 1.77e-07  -7.8 5.08e-04    -  1.00e+00 1.00e+00h  1
  19  2.0484674e-05 0.00e+00 1.77e-07  -7.8 5.07e-04    -  1.00e+00 1.00e+00f  1
iter    objective    inf_pr   inf_du lg(mu)  ||d||  lg(rg) alpha_du alpha_pr  ls
  20  2.0484676e-05 0.00e+00 1.77e-07  -7.8 5.07e-04    -  1.00e+00 1.00e+00f  1

Number of Iterations....: 20

                                   (scaled)                 (unscaled)
Objective...............:   2.0484676033327709e-05    2.0484676033327709e-05
Dual infeasibility......:   1.7733643773785349e-07    1.7733643773785349e-07
Constraint violation....:   0.0000000000000000e+00    0.0000000000000000e+00
Variable bound violation:   0.0000000000000000e+00    0.0000000000000000e+00
Complementarity.........:   1.6606493957503062e-08    1.6606493957503062e-08
Overall NLP error.......:   1.7733643773785349e-07    1.7733643773785349e-07


Number of objective function evaluations             = 23
Number of objective gradient evaluations             = 21
Number of equality constraint evaluations            = 0
Number of inequality constraint evaluations          = 23
Number of equality constraint Jacobian evaluations   = 0
Number of inequality constraint Jacobian evaluations = 1
Number of Lagrangian Hessian evaluations             = 0
Total seconds in IPOPT                               = 676.153

EXIT: Solved To Acceptable Level.
ALMOST_LOCALLY_SOLVED
2.048467603332771e-5
[17.539565817497017, 14.887202084864537, 14.887202084864537, 16.22287372584466, 14.88720271247512, 16.87879683578513, 17.539567289051845, 14.537251680923893, 15.228548254467416, 16.22287865771968]
